<?xml version = "1.0" encoding="UTF-8" standalone="yes"?>
<CPLEXSolution version="1.2">
 <header
   problemName="fir1_1.5.lp"
   solutionName="incumbent"
   solutionIndex="-1"
   objectiveValue="5"
   solutionTypeValue="3"
   solutionTypeString="primal"
   solutionStatusValue="101"
   solutionStatusString="integer optimal solution"
   solutionMethodString="mip"
   primalFeasible="1"
   dualFeasible="1"
   MIPNodes="0"
   MIPIterations="210"
   writeLevel="1"/>
 <quality
   epInt="1.0000000000000001e-05"
   epRHS="9.9999999999999995e-07"
   maxIntInfeas="0"
   maxPrimalInfeas="0"
   maxX="3"
   maxSlack="10"/>
 <linearConstraints>
  <constraint name="c1" index="0" slack="0"/>
  <constraint name="c2" index="1" slack="0"/>
  <constraint name="c3" index="2" slack="0"/>
  <constraint name="c4" index="3" slack="0"/>
  <constraint name="c5" index="4" slack="0"/>
  <constraint name="c6" index="5" slack="0"/>
  <constraint name="c7" index="6" slack="0"/>
  <constraint name="c8" index="7" slack="0"/>
  <constraint name="c9" index="8" slack="0"/>
  <constraint name="c10" index="9" slack="0"/>
  <constraint name="c11" index="10" slack="0"/>
  <constraint name="c12" index="11" slack="0"/>
  <constraint name="c13" index="12" slack="0"/>
  <constraint name="c14" index="13" slack="0"/>
  <constraint name="c15" index="14" slack="0"/>
  <constraint name="c16" index="15" slack="0"/>
  <constraint name="c17" index="16" slack="0"/>
  <constraint name="c18" index="17" slack="0"/>
  <constraint name="c19" index="18" slack="0"/>
  <constraint name="c20" index="19" slack="0"/>
  <constraint name="c21" index="20" slack="0"/>
  <constraint name="c22" index="21" slack="0"/>
  <constraint name="c23" index="22" slack="0"/>
  <constraint name="c24" index="23" slack="0"/>
  <constraint name="c25" index="24" slack="0"/>
  <constraint name="c26" index="25" slack="0"/>
  <constraint name="c27" index="26" slack="0"/>
  <constraint name="c28" index="27" slack="0"/>
  <constraint name="c29" index="28" slack="0"/>
  <constraint name="c30" index="29" slack="0"/>
  <constraint name="c31" index="30" slack="0"/>
  <constraint name="c32" index="31" slack="0"/>
  <constraint name="c33" index="32" slack="0"/>
  <constraint name="c34" index="33" slack="0"/>
  <constraint name="c35" index="34" slack="0"/>
  <constraint name="c36" index="35" slack="0"/>
  <constraint name="c37" index="36" slack="0"/>
  <constraint name="c38" index="37" slack="0"/>
  <constraint name="c39" index="38" slack="0"/>
  <constraint name="c40" index="39" slack="0"/>
  <constraint name="c41" index="40" slack="0"/>
  <constraint name="c42" index="41" slack="0"/>
  <constraint name="c43" index="42" slack="0"/>
  <constraint name="c44" index="43" slack="0"/>
  <constraint name="c45" index="44" slack="2"/>
  <constraint name="c46" index="45" slack="2"/>
  <constraint name="c47" index="46" slack="2"/>
  <constraint name="c48" index="47" slack="1"/>
  <constraint name="c49" index="48" slack="1"/>
  <constraint name="c50" index="49" slack="0"/>
  <constraint name="c51" index="50" slack="1"/>
  <constraint name="c52" index="51" slack="0"/>
  <constraint name="c53" index="52" slack="0"/>
  <constraint name="c54" index="53" slack="1"/>
  <constraint name="c55" index="54" slack="3"/>
  <constraint name="c56" index="55" slack="0"/>
  <constraint name="c57" index="56" slack="2"/>
  <constraint name="c58" index="57" slack="0"/>
  <constraint name="c59" index="58" slack="2"/>
  <constraint name="c60" index="59" slack="1"/>
  <constraint name="c61" index="60" slack="1"/>
  <constraint name="c62" index="61" slack="1"/>
  <constraint name="c63" index="62" slack="1"/>
  <constraint name="c64" index="63" slack="0"/>
  <constraint name="c65" index="64" slack="2"/>
  <constraint name="c66" index="65" slack="0"/>
  <constraint name="c67" index="66" slack="0"/>
  <constraint name="c68" index="67" slack="0"/>
  <constraint name="c69" index="68" slack="0"/>
  <constraint name="c70" index="69" slack="0"/>
  <constraint name="c71" index="70" slack="0"/>
  <constraint name="c72" index="71" slack="1"/>
  <constraint name="c73" index="72" slack="0"/>
  <constraint name="c74" index="73" slack="1"/>
  <constraint name="c75" index="74" slack="0"/>
  <constraint name="c76" index="75" slack="2"/>
  <constraint name="c77" index="76" slack="1"/>
  <constraint name="c78" index="77" slack="0"/>
  <constraint name="c79" index="78" slack="1"/>
  <constraint name="c80" index="79" slack="1"/>
  <constraint name="c81" index="80" slack="3"/>
  <constraint name="c82" index="81" slack="2"/>
  <constraint name="c83" index="82" slack="2"/>
  <constraint name="c84" index="83" slack="3"/>
  <constraint name="c85" index="84" slack="2"/>
  <constraint name="c86" index="85" slack="0"/>
  <constraint name="c87" index="86" slack="4"/>
  <constraint name="c88" index="87" slack="0"/>
  <constraint name="c89" index="88" slack="0"/>
  <constraint name="c90" index="89" slack="7"/>
  <constraint name="c91" index="90" slack="3"/>
  <constraint name="c92" index="91" slack="2"/>
  <constraint name="c93" index="92" slack="2"/>
  <constraint name="c94" index="93" slack="0"/>
  <constraint name="c95" index="94" slack="1"/>
  <constraint name="c96" index="95" slack="2"/>
  <constraint name="c97" index="96" slack="8"/>
  <constraint name="c98" index="97" slack="1"/>
  <constraint name="c99" index="98" slack="1"/>
  <constraint name="c100" index="99" slack="0"/>
  <constraint name="c101" index="100" slack="0"/>
  <constraint name="c102" index="101" slack="4"/>
  <constraint name="c103" index="102" slack="0"/>
  <constraint name="c104" index="103" slack="0"/>
  <constraint name="c105" index="104" slack="3"/>
  <constraint name="c106" index="105" slack="0"/>
  <constraint name="c107" index="106" slack="0"/>
  <constraint name="c108" index="107" slack="0"/>
  <constraint name="c109" index="108" slack="4"/>
  <constraint name="c110" index="109" slack="10"/>
  <constraint name="c111" index="110" slack="0"/>
  <constraint name="c112" index="111" slack="0"/>
  <constraint name="c113" index="112" slack="0"/>
  <constraint name="c114" index="113" slack="0"/>
  <constraint name="c115" index="114" slack="0"/>
  <constraint name="c116" index="115" slack="2"/>
  <constraint name="c117" index="116" slack="0"/>
  <constraint name="c118" index="117" slack="0"/>
 </linearConstraints>
 <variables>
  <variable name="M1" index="0" value="2"/>
  <variable name="M2" index="1" value="3"/>
  <variable name="x0,10" index="2" value="-0"/>
  <variable name="x0,11" index="3" value="0"/>
  <variable name="x0,12" index="4" value="-0"/>
  <variable name="x0,13" index="5" value="-0"/>
  <variable name="x0,14" index="6" value="1"/>
  <variable name="x0,15" index="7" value="-0"/>
  <variable name="x0,16" index="8" value="-0"/>
  <variable name="x1,10" index="9" value="-0"/>
  <variable name="x1,11" index="10" value="-0"/>
  <variable name="x1,12" index="11" value="-0"/>
  <variable name="x1,13" index="12" value="-0"/>
  <variable name="x1,14" index="13" value="1"/>
  <variable name="x1,15" index="14" value="-0"/>
  <variable name="x1,16" index="15" value="-0"/>
  <variable name="x2,9" index="16" value="-0"/>
  <variable name="x2,10" index="17" value="-0"/>
  <variable name="x2,11" index="18" value="-0"/>
  <variable name="x2,12" index="19" value="1"/>
  <variable name="x2,13" index="20" value="-0"/>
  <variable name="x2,14" index="21" value="-0"/>
  <variable name="x2,15" index="22" value="-0"/>
  <variable name="x2,16" index="23" value="0"/>
  <variable name="x3,8" index="24" value="0"/>
  <variable name="x3,9" index="25" value="-0"/>
  <variable name="x3,10" index="26" value="-0"/>
  <variable name="x3,11" index="27" value="-0"/>
  <variable name="x3,12" index="28" value="1"/>
  <variable name="x3,13" index="29" value="-0"/>
  <variable name="x3,14" index="30" value="-0"/>
  <variable name="x3,15" index="31" value="-0"/>
  <variable name="x3,16" index="32" value="-0"/>
  <variable name="x4,8" index="33" value="1"/>
  <variable name="x4,9" index="34" value="-0"/>
  <variable name="x4,10" index="35" value="-0"/>
  <variable name="x4,11" index="36" value="-0"/>
  <variable name="x4,12" index="37" value="-0"/>
  <variable name="x4,13" index="38" value="-0"/>
  <variable name="x4,14" index="39" value="0"/>
  <variable name="x4,15" index="40" value="-0"/>
  <variable name="x4,16" index="41" value="0"/>
  <variable name="x5,8" index="42" value="1"/>
  <variable name="x5,9" index="43" value="-0"/>
  <variable name="x5,10" index="44" value="-0"/>
  <variable name="x5,11" index="45" value="-0"/>
  <variable name="x5,12" index="46" value="-0"/>
  <variable name="x5,13" index="47" value="-0"/>
  <variable name="x5,14" index="48" value="0"/>
  <variable name="x5,15" index="49" value="-0"/>
  <variable name="x5,16" index="50" value="-0"/>
  <variable name="x6,6" index="51" value="0"/>
  <variable name="x6,7" index="52" value="-0"/>
  <variable name="x6,8" index="53" value="-0"/>
  <variable name="x6,9" index="54" value="-0"/>
  <variable name="x6,10" index="55" value="-0"/>
  <variable name="x6,11" index="56" value="-0"/>
  <variable name="x6,12" index="57" value="-0"/>
  <variable name="x6,13" index="58" value="-0"/>
  <variable name="x6,14" index="59" value="-0"/>
  <variable name="x6,15" index="60" value="-0"/>
  <variable name="x6,16" index="61" value="1"/>
  <variable name="x7,6" index="62" value="1"/>
  <variable name="x7,7" index="63" value="-0"/>
  <variable name="x7,8" index="64" value="-0"/>
  <variable name="x7,9" index="65" value="-0"/>
  <variable name="x7,10" index="66" value="-0"/>
  <variable name="x7,11" index="67" value="-0"/>
  <variable name="x7,12" index="68" value="-0"/>
  <variable name="x7,13" index="69" value="-0"/>
  <variable name="x7,14" index="70" value="-0"/>
  <variable name="x7,15" index="71" value="-0"/>
  <variable name="x7,16" index="72" value="-0"/>
  <variable name="x8,6" index="73" value="-0"/>
  <variable name="x8,7" index="74" value="-0"/>
  <variable name="x8,8" index="75" value="0"/>
  <variable name="x8,9" index="76" value="-0"/>
  <variable name="x8,10" index="77" value="1"/>
  <variable name="x8,11" index="78" value="-0"/>
  <variable name="x8,12" index="79" value="-0"/>
  <variable name="x8,13" index="80" value="-0"/>
  <variable name="x8,14" index="81" value="-0"/>
  <variable name="x8,15" index="82" value="-0"/>
  <variable name="x8,16" index="83" value="-0"/>
  <variable name="x9,4" index="84" value="1"/>
  <variable name="x9,5" index="85" value="-0"/>
  <variable name="x9,6" index="86" value="-0"/>
  <variable name="x9,7" index="87" value="-0"/>
  <variable name="x9,8" index="88" value="-0"/>
  <variable name="x9,9" index="89" value="-0"/>
  <variable name="x9,10" index="90" value="-0"/>
  <variable name="x9,11" index="91" value="-0"/>
  <variable name="x9,12" index="92" value="-0"/>
  <variable name="x9,13" index="93" value="-0"/>
  <variable name="x9,14" index="94" value="-0"/>
  <variable name="x9,15" index="95" value="-0"/>
  <variable name="x9,16" index="96" value="-0"/>
  <variable name="x10,3" index="97" value="-0"/>
  <variable name="x10,4" index="98" value="-0"/>
  <variable name="x10,5" index="99" value="1"/>
  <variable name="x10,6" index="100" value="-0"/>
  <variable name="x10,7" index="101" value="-0"/>
  <variable name="x10,8" index="102" value="-0"/>
  <variable name="x10,9" index="103" value="-0"/>
  <variable name="x10,10" index="104" value="-0"/>
  <variable name="x10,11" index="105" value="-0"/>
  <variable name="x10,12" index="106" value="-0"/>
  <variable name="x10,13" index="107" value="-0"/>
  <variable name="x10,14" index="108" value="-0"/>
  <variable name="x10,15" index="109" value="-0"/>
  <variable name="x10,16" index="110" value="-0"/>
  <variable name="x11,9" index="111" value="0"/>
  <variable name="x11,10" index="112" value="-0"/>
  <variable name="x11,11" index="113" value="-0"/>
  <variable name="x11,12" index="114" value="1"/>
  <variable name="x11,13" index="115" value="-0"/>
  <variable name="x11,14" index="116" value="-0"/>
  <variable name="x11,15" index="117" value="-0"/>
  <variable name="x12,8" index="118" value="-0"/>
  <variable name="x12,9" index="119" value="-0"/>
  <variable name="x12,10" index="120" value="-0"/>
  <variable name="x12,11" index="121" value="1"/>
  <variable name="x12,12" index="122" value="-0"/>
  <variable name="x12,13" index="123" value="-0"/>
  <variable name="x12,14" index="124" value="-0"/>
  <variable name="x13,7" index="125" value="1"/>
  <variable name="x13,8" index="126" value="-0"/>
  <variable name="x13,9" index="127" value="-0"/>
  <variable name="x13,10" index="128" value="-0"/>
  <variable name="x13,11" index="129" value="-0"/>
  <variable name="x13,12" index="130" value="-0"/>
  <variable name="x13,13" index="131" value="-0"/>
  <variable name="x13,14" index="132" value="-0"/>
  <variable name="x13,15" index="133" value="-0"/>
  <variable name="x14,7" index="134" value="1"/>
  <variable name="x14,8" index="135" value="-0"/>
  <variable name="x14,9" index="136" value="-0"/>
  <variable name="x14,10" index="137" value="-0"/>
  <variable name="x14,11" index="138" value="-0"/>
  <variable name="x14,12" index="139" value="-0"/>
  <variable name="x14,13" index="140" value="-0"/>
  <variable name="x15,6" index="141" value="1"/>
  <variable name="x15,7" index="142" value="-0"/>
  <variable name="x15,8" index="143" value="-0"/>
  <variable name="x15,9" index="144" value="-0"/>
  <variable name="x15,10" index="145" value="-0"/>
  <variable name="x15,11" index="146" value="-0"/>
  <variable name="x15,12" index="147" value="-0"/>
  <variable name="x16,5" index="148" value="1"/>
  <variable name="x16,6" index="149" value="-0"/>
  <variable name="x16,7" index="150" value="-0"/>
  <variable name="x16,8" index="151" value="-0"/>
  <variable name="x16,9" index="152" value="-0"/>
  <variable name="x16,10" index="153" value="-0"/>
  <variable name="x16,11" index="154" value="-0"/>
  <variable name="x17,5" index="155" value="1"/>
  <variable name="x17,6" index="156" value="-0"/>
  <variable name="x17,7" index="157" value="-0"/>
  <variable name="x17,8" index="158" value="-0"/>
  <variable name="x17,9" index="159" value="-0"/>
  <variable name="x17,10" index="160" value="-0"/>
  <variable name="x17,11" index="161" value="-0"/>
  <variable name="x17,12" index="162" value="-0"/>
  <variable name="x17,13" index="163" value="-0"/>
  <variable name="x17,14" index="164" value="-0"/>
  <variable name="x17,15" index="165" value="-0"/>
  <variable name="x18,4" index="166" value="1"/>
  <variable name="x18,5" index="167" value="-0"/>
  <variable name="x18,6" index="168" value="-0"/>
  <variable name="x18,7" index="169" value="-0"/>
  <variable name="x18,8" index="170" value="-0"/>
  <variable name="x18,9" index="171" value="-0"/>
  <variable name="x18,10" index="172" value="-0"/>
  <variable name="x19,3" index="173" value="1"/>
  <variable name="x19,4" index="174" value="-0"/>
  <variable name="x19,5" index="175" value="-0"/>
  <variable name="x19,6" index="176" value="-0"/>
  <variable name="x19,7" index="177" value="-0"/>
  <variable name="x19,8" index="178" value="-0"/>
  <variable name="x19,9" index="179" value="-0"/>
  <variable name="x20,2" index="180" value="1"/>
  <variable name="x20,3" index="181" value="0"/>
  <variable name="x20,4" index="182" value="0"/>
  <variable name="x20,5" index="183" value="0"/>
  <variable name="x20,6" index="184" value="0"/>
  <variable name="x20,7" index="185" value="0"/>
  <variable name="x20,8" index="186" value="0"/>
  <variable name="x21,12" index="187" value="0"/>
  <variable name="x21,13" index="188" value="-0"/>
  <variable name="x21,14" index="189" value="-0"/>
  <variable name="x21,15" index="190" value="-0"/>
  <variable name="x21,16" index="191" value="-0"/>
  <variable name="x21,17" index="192" value="-0"/>
  <variable name="x21,18" index="193" value="1"/>
  <variable name="x22,12" index="194" value="-0"/>
  <variable name="x22,13" index="195" value="-0"/>
  <variable name="x22,14" index="196" value="-0"/>
  <variable name="x22,15" index="197" value="0"/>
  <variable name="x22,16" index="198" value="-0"/>
  <variable name="x22,17" index="199" value="1"/>
  <variable name="x22,18" index="200" value="0"/>
  <variable name="x23,12" index="201" value="-0"/>
  <variable name="x23,13" index="202" value="-0"/>
  <variable name="x23,14" index="203" value="-0"/>
  <variable name="x23,15" index="204" value="0"/>
  <variable name="x23,16" index="205" value="1"/>
  <variable name="x23,17" index="206" value="-0"/>
  <variable name="x23,18" index="207" value="-0"/>
  <variable name="x24,12" index="208" value="0"/>
  <variable name="x24,13" index="209" value="-0"/>
  <variable name="x24,14" index="210" value="-0"/>
  <variable name="x24,15" index="211" value="-0"/>
  <variable name="x24,16" index="212" value="-0"/>
  <variable name="x24,17" index="213" value="1"/>
  <variable name="x24,18" index="214" value="-0"/>
  <variable name="x25,11" index="215" value="-0"/>
  <variable name="x25,12" index="216" value="-0"/>
  <variable name="x25,13" index="217" value="-0"/>
  <variable name="x25,14" index="218" value="-0"/>
  <variable name="x25,15" index="219" value="1"/>
  <variable name="x25,16" index="220" value="-0"/>
  <variable name="x25,17" index="221" value="-0"/>
  <variable name="x25,18" index="222" value="-0"/>
  <variable name="x26,11" index="223" value="0"/>
  <variable name="x26,12" index="224" value="-0"/>
  <variable name="x26,13" index="225" value="-0"/>
  <variable name="x26,14" index="226" value="-0"/>
  <variable name="x26,15" index="227" value="-0"/>
  <variable name="x26,16" index="228" value="-0"/>
  <variable name="x26,17" index="229" value="1"/>
  <variable name="x26,18" index="230" value="-0"/>
  <variable name="x27,10" index="231" value="-0"/>
  <variable name="x27,11" index="232" value="-0"/>
  <variable name="x27,12" index="233" value="-0"/>
  <variable name="x27,13" index="234" value="-0"/>
  <variable name="x27,14" index="235" value="-0"/>
  <variable name="x27,15" index="236" value="-0"/>
  <variable name="x27,16" index="237" value="1"/>
  <variable name="x27,17" index="238" value="-0"/>
  <variable name="x27,18" index="239" value="-0"/>
  <variable name="x28,10" index="240" value="-0"/>
  <variable name="x28,11" index="241" value="-0"/>
  <variable name="x28,12" index="242" value="-0"/>
  <variable name="x28,13" index="243" value="-0"/>
  <variable name="x28,14" index="244" value="-0"/>
  <variable name="x28,15" index="245" value="0"/>
  <variable name="x28,16" index="246" value="1"/>
  <variable name="x28,17" index="247" value="-0"/>
  <variable name="x28,18" index="248" value="-0"/>
  <variable name="x29,10" index="249" value="-0"/>
  <variable name="x29,11" index="250" value="-0"/>
  <variable name="x29,12" index="251" value="-0"/>
  <variable name="x29,13" index="252" value="1"/>
  <variable name="x29,14" index="253" value="-0"/>
  <variable name="x29,15" index="254" value="-0"/>
  <variable name="x29,16" index="255" value="-0"/>
  <variable name="x29,17" index="256" value="-0"/>
  <variable name="x29,18" index="257" value="-0"/>
  <variable name="x30,10" index="258" value="-0"/>
  <variable name="x30,11" index="259" value="-0"/>
  <variable name="x30,12" index="260" value="1"/>
  <variable name="x30,13" index="261" value="-0"/>
  <variable name="x30,14" index="262" value="-0"/>
  <variable name="x30,15" index="263" value="-0"/>
  <variable name="x30,16" index="264" value="-0"/>
  <variable name="x30,17" index="265" value="-0"/>
  <variable name="x30,18" index="266" value="-0"/>
  <variable name="x31,10" index="267" value="1"/>
  <variable name="x31,11" index="268" value="-0"/>
  <variable name="x31,12" index="269" value="-0"/>
  <variable name="x31,13" index="270" value="-0"/>
  <variable name="x31,14" index="271" value="-0"/>
  <variable name="x31,15" index="272" value="-0"/>
  <variable name="x31,16" index="273" value="0"/>
  <variable name="x31,17" index="274" value="-0"/>
  <variable name="x31,18" index="275" value="-0"/>
  <variable name="x32,10" index="276" value="-0"/>
  <variable name="x32,11" index="277" value="-0"/>
  <variable name="x32,12" index="278" value="-0"/>
  <variable name="x32,13" index="279" value="-0"/>
  <variable name="x32,14" index="280" value="1"/>
  <variable name="x32,15" index="281" value="-0"/>
  <variable name="x32,16" index="282" value="-0"/>
  <variable name="x32,17" index="283" value="-0"/>
  <variable name="x32,18" index="284" value="-0"/>
  <variable name="x33,8" index="285" value="-0"/>
  <variable name="x33,9" index="286" value="-0"/>
  <variable name="x33,10" index="287" value="-0"/>
  <variable name="x33,11" index="288" value="-0"/>
  <variable name="x33,12" index="289" value="-0"/>
  <variable name="x33,13" index="290" value="-0"/>
  <variable name="x33,14" index="291" value="-0"/>
  <variable name="x33,15" index="292" value="-0"/>
  <variable name="x33,16" index="293" value="-0"/>
  <variable name="x33,17" index="294" value="-0"/>
  <variable name="x33,18" index="295" value="1"/>
  <variable name="x34,8" index="296" value="-0"/>
  <variable name="x34,9" index="297" value="-0"/>
  <variable name="x34,10" index="298" value="-0"/>
  <variable name="x34,11" index="299" value="-0"/>
  <variable name="x34,12" index="300" value="-0"/>
  <variable name="x34,13" index="301" value="-0"/>
  <variable name="x34,14" index="302" value="-0"/>
  <variable name="x34,15" index="303" value="-0"/>
  <variable name="x34,16" index="304" value="-0"/>
  <variable name="x34,17" index="305" value="-0"/>
  <variable name="x34,18" index="306" value="1"/>
  <variable name="x35,8" index="307" value="-0"/>
  <variable name="x35,9" index="308" value="-0"/>
  <variable name="x35,10" index="309" value="-0"/>
  <variable name="x35,11" index="310" value="-0"/>
  <variable name="x35,12" index="311" value="-0"/>
  <variable name="x35,13" index="312" value="-0"/>
  <variable name="x35,14" index="313" value="-0"/>
  <variable name="x35,15" index="314" value="1"/>
  <variable name="x35,16" index="315" value="-0"/>
  <variable name="x35,17" index="316" value="-0"/>
  <variable name="x35,18" index="317" value="-0"/>
  <variable name="x36,8" index="318" value="-0"/>
  <variable name="x36,9" index="319" value="-0"/>
  <variable name="x36,10" index="320" value="-0"/>
  <variable name="x36,11" index="321" value="1"/>
  <variable name="x36,12" index="322" value="-0"/>
  <variable name="x36,13" index="323" value="-0"/>
  <variable name="x36,14" index="324" value="-0"/>
  <variable name="x36,15" index="325" value="-0"/>
  <variable name="x36,16" index="326" value="-0"/>
  <variable name="x36,17" index="327" value="-0"/>
  <variable name="x36,18" index="328" value="-0"/>
  <variable name="x37,8" index="329" value="-0"/>
  <variable name="x37,9" index="330" value="-0"/>
  <variable name="x37,10" index="331" value="-0"/>
  <variable name="x37,11" index="332" value="-0"/>
  <variable name="x37,12" index="333" value="-0"/>
  <variable name="x37,13" index="334" value="-0"/>
  <variable name="x37,14" index="335" value="1"/>
  <variable name="x37,15" index="336" value="-0"/>
  <variable name="x37,16" index="337" value="-0"/>
  <variable name="x37,17" index="338" value="-0"/>
  <variable name="x37,18" index="339" value="-0"/>
  <variable name="x38,8" index="340" value="-0"/>
  <variable name="x38,9" index="341" value="-0"/>
  <variable name="x38,10" index="342" value="-0"/>
  <variable name="x38,11" index="343" value="-0"/>
  <variable name="x38,12" index="344" value="-0"/>
  <variable name="x38,13" index="345" value="-0"/>
  <variable name="x38,14" index="346" value="1"/>
  <variable name="x38,15" index="347" value="-0"/>
  <variable name="x38,16" index="348" value="-0"/>
  <variable name="x38,17" index="349" value="-0"/>
  <variable name="x38,18" index="350" value="-0"/>
  <variable name="x39,6" index="351" value="1"/>
  <variable name="x39,7" index="352" value="-0"/>
  <variable name="x39,8" index="353" value="-0"/>
  <variable name="x39,9" index="354" value="-0"/>
  <variable name="x39,10" index="355" value="-0"/>
  <variable name="x39,11" index="356" value="-0"/>
  <variable name="x39,12" index="357" value="-0"/>
  <variable name="x39,13" index="358" value="-0"/>
  <variable name="x39,14" index="359" value="-0"/>
  <variable name="x39,15" index="360" value="-0"/>
  <variable name="x39,16" index="361" value="-0"/>
  <variable name="x39,17" index="362" value="-0"/>
  <variable name="x39,18" index="363" value="-0"/>
  <variable name="x40,6" index="364" value="-0"/>
  <variable name="x40,7" index="365" value="1"/>
  <variable name="x40,8" index="366" value="-0"/>
  <variable name="x40,9" index="367" value="-0"/>
  <variable name="x40,10" index="368" value="-0"/>
  <variable name="x40,11" index="369" value="-0"/>
  <variable name="x40,12" index="370" value="-0"/>
  <variable name="x40,13" index="371" value="-0"/>
  <variable name="x40,14" index="372" value="-0"/>
  <variable name="x40,15" index="373" value="-0"/>
  <variable name="x40,16" index="374" value="-0"/>
  <variable name="x40,17" index="375" value="-0"/>
  <variable name="x40,18" index="376" value="-0"/>
  <variable name="x41,5" index="377" value="-0"/>
  <variable name="x41,6" index="378" value="-0"/>
  <variable name="x41,7" index="379" value="-0"/>
  <variable name="x41,8" index="380" value="-0"/>
  <variable name="x41,9" index="381" value="1"/>
  <variable name="x41,10" index="382" value="-0"/>
  <variable name="x41,11" index="383" value="-0"/>
  <variable name="x41,12" index="384" value="-0"/>
  <variable name="x41,13" index="385" value="-0"/>
  <variable name="x41,14" index="386" value="-0"/>
  <variable name="x41,15" index="387" value="-0"/>
  <variable name="x41,16" index="388" value="-0"/>
  <variable name="x41,17" index="389" value="-0"/>
  <variable name="x41,18" index="390" value="-0"/>
  <variable name="x42,5" index="391" value="0"/>
  <variable name="x42,6" index="392" value="-0"/>
  <variable name="x42,7" index="393" value="0"/>
  <variable name="x42,8" index="394" value="-0"/>
  <variable name="x42,9" index="395" value="-0"/>
  <variable name="x42,10" index="396" value="-0"/>
  <variable name="x42,11" index="397" value="-0"/>
  <variable name="x42,12" index="398" value="-0"/>
  <variable name="x42,13" index="399" value="-0"/>
  <variable name="x42,14" index="400" value="0"/>
  <variable name="x42,15" index="401" value="1"/>
  <variable name="x42,16" index="402" value="-0"/>
  <variable name="x42,17" index="403" value="-0"/>
  <variable name="x42,18" index="404" value="-0"/>
  <variable name="x43,1" index="405" value="1"/>
  <variable name="x43,2" index="406" value="0"/>
  <variable name="x43,3" index="407" value="0"/>
  <variable name="x43,4" index="408" value="0"/>
  <variable name="x43,5" index="409" value="0"/>
  <variable name="x43,6" index="410" value="0"/>
  <variable name="x43,7" index="411" value="0"/>
  <variable name="x9,3" index="412" value="0"/>
  <variable name="x6,5" index="413" value="0"/>
  <variable name="x7,5" index="414" value="0"/>
  <variable name="x8,5" index="415" value="0"/>
  <variable name="x3,7" index="416" value="0"/>
  <variable name="x4,7" index="417" value="0"/>
  <variable name="x5,7" index="418" value="0"/>
  <variable name="x2,8" index="419" value="0"/>
  <variable name="x0,9" index="420" value="0"/>
  <variable name="x1,9" index="421" value="0"/>
  <variable name="x0,17" index="422" value="0"/>
  <variable name="x1,17" index="423" value="0"/>
  <variable name="x2,17" index="424" value="0"/>
  <variable name="x3,17" index="425" value="0"/>
  <variable name="x4,17" index="426" value="0"/>
  <variable name="x5,17" index="427" value="0"/>
  <variable name="x6,17" index="428" value="0"/>
  <variable name="x7,17" index="429" value="0"/>
  <variable name="x8,17" index="430" value="0"/>
  <variable name="x9,17" index="431" value="0"/>
  <variable name="x10,17" index="432" value="0"/>
 </variables>
</CPLEXSolution>
